(set-logic ALL)
(declare-const equation_VAR String)
(assert (< 0 (str.len equation_VAR)))
(assert (> (str.len equation_VAR) 0))
(assert (not (str.in.re (str.at equation_VAR 0) (re.+ (re.range "0" "9")))))
(assert (= (str.at equation_VAR 0) ")"))
(check-sat)
(get-value (equation_VAR))
